mixintcount/benchmarks/random_v2l/3_3_112.in
12 5
#	x1	x2	x3;		0 = Real; 1 = Integer
	1	1	1
1	0	-8	8	35
1	5	-6	8	91
1	10	-7	6	-53
1	-4	-9	10	13
1	0	-9	-10	-5
1	9	-8	6	10
1	1	0	0	112
1	-1	0	0	112
1	0	1	0	112
1	0	-1	0	112
1	0	0	1	112
1	0	0	-1	112
